<number of tasks>
50

<cycle time>
1000

<order strength>
0.204


<task times>
1 40
2 110
3 185
4 214
5 137
6 575
7 69
8 179
9 59
10 513
11 281
12 143
13 354
14 150
15 130
16 271
17 26
18 545
19 139
20 119
21 586
22 55
23 227
24 501
25 300
26 193
27 520
28 43
29 153
30 54
31 485
32 161
33 99
34 45
35 248
36 166
37 98
38 566
39 170
40 115
41 597
42 262
43 265
44 566
45 90
46 242
47 223
48 203
49 116
50 159

<precedence relations>
1,10
1,13
3,38
5,8
5,12
5,24
5,40
6,9
6,11
8,16
10,14
10,15
10,17
11,17
12,42
13,31
14,21
15,20
15,36
16,18
16,19
16,22
16,23
19,27
19,29
19,43
20,24
21,25
21,28
22,28
22,30
23,26
23,33
24,32
25,31
25,33
26,35
26,36
27,45
27,47
28,34
28,37
30,32
31,40
32,39
32,41
34,42
35,43
36,38
38,45
38,47
40,44
40,48
40,49
43,46
43,50

<end>
